db/data/226128911317611808418022265632820619365.z3.out
sat
-------------------
1722.558962514
